% Generated by MiniZinc 2.9.3
% Solver library: /home/void/Workspace-Research/Code/fzn-minicpp/minizinc
% Command line invocation: minizinc --solver org.minicpp.ml --compile --no-output-ozn bpp-sat.mzn dzn/Falkenauer_t501_11.dzn -D n_bins=167 -o fzn-sat/Falkenauer_t501_11.fzn 

predicate minicpp_bin_packing_load(array [int] of var int: l,array [int] of var int: bin,array [int] of int: w);
array [1..501] of int: weights = [499,498,498,496,495,492,491,490,490,488,488,485,485,483,483,480,479,478,475,474,473,471,471,470,469,468,467,465,465,464,463,463,462,462,461,459,459,458,457,455,454,454,454,453,453,452,451,451,451,450,449,449,449,448,445,443,442,441,441,438,436,434,433,433,433,432,431,430,429,429,428,426,426,423,423,422,420,419,419,418,417,417,417,414,414,414,413,413,412,410,409,409,409,409,408,407,404,401,400,399,399,398,398,397,397,396,395,394,394,393,392,391,390,386,386,385,385,385,384,384,383,383,383,382,382,381,381,380,380,379,379,379,378,378,378,377,377,376,376,375,374,374,374,373,373,373,373,371,371,371,371,371,369,369,369,369,368,368,367,367,367,366,365,365,364,364,363,362,362,362,361,360,360,360,360,360,360,359,359,359,359,359,358,358,357,357,357,357,357,356,355,353,352,352,352,352,351,351,350,350,347,346,346,345,345,345,342,341,341,339,339,338,338,337,335,334,334,332,330,330,330,328,328,328,326,326,326,326,325,325,324,323,322,322,321,320,320,320,320,320,319,318,317,317,316,316,315,315,315,315,315,314,313,313,312,312,312,310,309,309,307,307,305,303,303,302,302,302,301,301,300,300,300,300,299,298,297,297,297,297,297,297,296,296,296,296,296,295,293,292,292,291,291,291,291,291,291,290,290,289,289,289,289,289,289,289,288,288,288,287,287,286,286,285,285,285,285,285,285,285,285,284,284,284,284,283,283,283,282,282,282,282,282,281,281,280,280,280,280,280,280,280,279,279,279,278,278,278,278,278,278,278,278,278,277,277,276,276,276,275,275,275,275,275,275,274,274,274,274,274,273,271,271,271,271,270,270,270,270,270,270,270,269,269,269,269,269,268,268,268,268,268,267,267,267,267,267,267,267,267,266,266,266,266,266,265,265,265,264,264,264,263,263,263,262,262,262,262,262,262,261,261,261,261,261,261,260,260,260,259,259,259,259,258,258,258,258,258,258,258,257,257,257,257,257,257,256,256,256,256,256,256,255,255,255,255,255,255,255,255,255,254,254,254,254,254,254,254,254,253,253,253,253,253,253,253,253,253,253,253,252,252,252,252,252,252,252,252,251,251,251,251,251,251,250,250,250,250,250,250,250];
var 1..167: X_INTRODUCED_16_;
var 1..167: X_INTRODUCED_17_;
var 1..167: X_INTRODUCED_18_;
var 1..167: X_INTRODUCED_19_;
var 1..167: X_INTRODUCED_20_;
var 1..167: X_INTRODUCED_21_;
var 1..167: X_INTRODUCED_22_;
var 1..167: X_INTRODUCED_23_;
var 1..167: X_INTRODUCED_24_;
var 1..167: X_INTRODUCED_25_;
var 1..167: X_INTRODUCED_26_;
var 1..167: X_INTRODUCED_27_;
var 1..167: X_INTRODUCED_28_;
var 1..167: X_INTRODUCED_29_;
var 1..167: X_INTRODUCED_30_;
var 1..167: X_INTRODUCED_31_;
var 1..167: X_INTRODUCED_32_;
var 1..167: X_INTRODUCED_33_;
var 1..167: X_INTRODUCED_34_;
var 1..167: X_INTRODUCED_35_;
var 1..167: X_INTRODUCED_36_;
var 1..167: X_INTRODUCED_37_;
var 1..167: X_INTRODUCED_38_;
var 1..167: X_INTRODUCED_39_;
var 1..167: X_INTRODUCED_40_;
var 1..167: X_INTRODUCED_41_;
var 1..167: X_INTRODUCED_42_;
var 1..167: X_INTRODUCED_43_;
var 1..167: X_INTRODUCED_44_;
var 1..167: X_INTRODUCED_45_;
var 1..167: X_INTRODUCED_46_;
var 1..167: X_INTRODUCED_47_;
var 1..167: X_INTRODUCED_48_;
var 1..167: X_INTRODUCED_49_;
var 1..167: X_INTRODUCED_50_;
var 1..167: X_INTRODUCED_51_;
var 1..167: X_INTRODUCED_52_;
var 1..167: X_INTRODUCED_53_;
var 1..167: X_INTRODUCED_54_;
var 1..167: X_INTRODUCED_55_;
var 1..167: X_INTRODUCED_56_;
var 1..167: X_INTRODUCED_57_;
var 1..167: X_INTRODUCED_58_;
var 1..167: X_INTRODUCED_59_;
var 1..167: X_INTRODUCED_60_;
var 1..167: X_INTRODUCED_61_;
var 1..167: X_INTRODUCED_62_;
var 1..167: X_INTRODUCED_63_;
var 1..167: X_INTRODUCED_64_;
var 1..167: X_INTRODUCED_65_;
var 1..167: X_INTRODUCED_66_;
var 1..167: X_INTRODUCED_67_;
var 1..167: X_INTRODUCED_68_;
var 1..167: X_INTRODUCED_69_;
var 1..167: X_INTRODUCED_70_;
var 1..167: X_INTRODUCED_71_;
var 1..167: X_INTRODUCED_72_;
var 1..167: X_INTRODUCED_73_;
var 1..167: X_INTRODUCED_74_;
var 1..167: X_INTRODUCED_75_;
var 1..167: X_INTRODUCED_76_;
var 1..167: X_INTRODUCED_77_;
var 1..167: X_INTRODUCED_78_;
var 1..167: X_INTRODUCED_79_;
var 1..167: X_INTRODUCED_80_;
var 1..167: X_INTRODUCED_81_;
var 1..167: X_INTRODUCED_82_;
var 1..167: X_INTRODUCED_83_;
var 1..167: X_INTRODUCED_84_;
var 1..167: X_INTRODUCED_85_;
var 1..167: X_INTRODUCED_86_;
var 1..167: X_INTRODUCED_87_;
var 1..167: X_INTRODUCED_88_;
var 1..167: X_INTRODUCED_89_;
var 1..167: X_INTRODUCED_90_;
var 1..167: X_INTRODUCED_91_;
var 1..167: X_INTRODUCED_92_;
var 1..167: X_INTRODUCED_93_;
var 1..167: X_INTRODUCED_94_;
var 1..167: X_INTRODUCED_95_;
var 1..167: X_INTRODUCED_96_;
var 1..167: X_INTRODUCED_97_;
var 1..167: X_INTRODUCED_98_;
var 1..167: X_INTRODUCED_99_;
var 1..167: X_INTRODUCED_100_;
var 1..167: X_INTRODUCED_101_;
var 1..167: X_INTRODUCED_102_;
var 1..167: X_INTRODUCED_103_;
var 1..167: X_INTRODUCED_104_;
var 1..167: X_INTRODUCED_105_;
var 1..167: X_INTRODUCED_106_;
var 1..167: X_INTRODUCED_107_;
var 1..167: X_INTRODUCED_108_;
var 1..167: X_INTRODUCED_109_;
var 1..167: X_INTRODUCED_110_;
var 1..167: X_INTRODUCED_111_;
var 1..167: X_INTRODUCED_112_;
var 1..167: X_INTRODUCED_113_;
var 1..167: X_INTRODUCED_114_;
var 1..167: X_INTRODUCED_115_;
var 1..167: X_INTRODUCED_116_;
var 1..167: X_INTRODUCED_117_;
var 1..167: X_INTRODUCED_118_;
var 1..167: X_INTRODUCED_119_;
var 1..167: X_INTRODUCED_120_;
var 1..167: X_INTRODUCED_121_;
var 1..167: X_INTRODUCED_122_;
var 1..167: X_INTRODUCED_123_;
var 1..167: X_INTRODUCED_124_;
var 1..167: X_INTRODUCED_125_;
var 1..167: X_INTRODUCED_126_;
var 1..167: X_INTRODUCED_127_;
var 1..167: X_INTRODUCED_128_;
var 1..167: X_INTRODUCED_129_;
var 1..167: X_INTRODUCED_130_;
var 1..167: X_INTRODUCED_131_;
var 1..167: X_INTRODUCED_132_;
var 1..167: X_INTRODUCED_133_;
var 1..167: X_INTRODUCED_134_;
var 1..167: X_INTRODUCED_135_;
var 1..167: X_INTRODUCED_136_;
var 1..167: X_INTRODUCED_137_;
var 1..167: X_INTRODUCED_138_;
var 1..167: X_INTRODUCED_139_;
var 1..167: X_INTRODUCED_140_;
var 1..167: X_INTRODUCED_141_;
var 1..167: X_INTRODUCED_142_;
var 1..167: X_INTRODUCED_143_;
var 1..167: X_INTRODUCED_144_;
var 1..167: X_INTRODUCED_145_;
var 1..167: X_INTRODUCED_146_;
var 1..167: X_INTRODUCED_147_;
var 1..167: X_INTRODUCED_148_;
var 1..167: X_INTRODUCED_149_;
var 1..167: X_INTRODUCED_150_;
var 1..167: X_INTRODUCED_151_;
var 1..167: X_INTRODUCED_152_;
var 1..167: X_INTRODUCED_153_;
var 1..167: X_INTRODUCED_154_;
var 1..167: X_INTRODUCED_155_;
var 1..167: X_INTRODUCED_156_;
var 1..167: X_INTRODUCED_157_;
var 1..167: X_INTRODUCED_158_;
var 1..167: X_INTRODUCED_159_;
var 1..167: X_INTRODUCED_160_;
var 1..167: X_INTRODUCED_161_;
var 1..167: X_INTRODUCED_162_;
var 1..167: X_INTRODUCED_163_;
var 1..167: X_INTRODUCED_164_;
var 1..167: X_INTRODUCED_165_;
var 1..167: X_INTRODUCED_166_;
var 1..167: X_INTRODUCED_167_;
var 1..167: X_INTRODUCED_168_;
var 1..167: X_INTRODUCED_169_;
var 1..167: X_INTRODUCED_170_;
var 1..167: X_INTRODUCED_171_;
var 1..167: X_INTRODUCED_172_;
var 1..167: X_INTRODUCED_173_;
var 1..167: X_INTRODUCED_174_;
var 1..167: X_INTRODUCED_175_;
var 1..167: X_INTRODUCED_176_;
var 1..167: X_INTRODUCED_177_;
var 1..167: X_INTRODUCED_178_;
var 1..167: X_INTRODUCED_179_;
var 1..167: X_INTRODUCED_180_;
var 1..167: X_INTRODUCED_181_;
var 1..167: X_INTRODUCED_182_;
var 1..167: X_INTRODUCED_183_;
var 1..167: X_INTRODUCED_184_;
var 1..167: X_INTRODUCED_185_;
var 1..167: X_INTRODUCED_186_;
var 1..167: X_INTRODUCED_187_;
var 1..167: X_INTRODUCED_188_;
var 1..167: X_INTRODUCED_189_;
var 1..167: X_INTRODUCED_190_;
var 1..167: X_INTRODUCED_191_;
var 1..167: X_INTRODUCED_192_;
var 1..167: X_INTRODUCED_193_;
var 1..167: X_INTRODUCED_194_;
var 1..167: X_INTRODUCED_195_;
var 1..167: X_INTRODUCED_196_;
var 1..167: X_INTRODUCED_197_;
var 1..167: X_INTRODUCED_198_;
var 1..167: X_INTRODUCED_199_;
var 1..167: X_INTRODUCED_200_;
var 1..167: X_INTRODUCED_201_;
var 1..167: X_INTRODUCED_202_;
var 1..167: X_INTRODUCED_203_;
var 1..167: X_INTRODUCED_204_;
var 1..167: X_INTRODUCED_205_;
var 1..167: X_INTRODUCED_206_;
var 1..167: X_INTRODUCED_207_;
var 1..167: X_INTRODUCED_208_;
var 1..167: X_INTRODUCED_209_;
var 1..167: X_INTRODUCED_210_;
var 1..167: X_INTRODUCED_211_;
var 1..167: X_INTRODUCED_212_;
var 1..167: X_INTRODUCED_213_;
var 1..167: X_INTRODUCED_214_;
var 1..167: X_INTRODUCED_215_;
var 1..167: X_INTRODUCED_216_;
var 1..167: X_INTRODUCED_217_;
var 1..167: X_INTRODUCED_218_;
var 1..167: X_INTRODUCED_219_;
var 1..167: X_INTRODUCED_220_;
var 1..167: X_INTRODUCED_221_;
var 1..167: X_INTRODUCED_222_;
var 1..167: X_INTRODUCED_223_;
var 1..167: X_INTRODUCED_224_;
var 1..167: X_INTRODUCED_225_;
var 1..167: X_INTRODUCED_226_;
var 1..167: X_INTRODUCED_227_;
var 1..167: X_INTRODUCED_228_;
var 1..167: X_INTRODUCED_229_;
var 1..167: X_INTRODUCED_230_;
var 1..167: X_INTRODUCED_231_;
var 1..167: X_INTRODUCED_232_;
var 1..167: X_INTRODUCED_233_;
var 1..167: X_INTRODUCED_234_;
var 1..167: X_INTRODUCED_235_;
var 1..167: X_INTRODUCED_236_;
var 1..167: X_INTRODUCED_237_;
var 1..167: X_INTRODUCED_238_;
var 1..167: X_INTRODUCED_239_;
var 1..167: X_INTRODUCED_240_;
var 1..167: X_INTRODUCED_241_;
var 1..167: X_INTRODUCED_242_;
var 1..167: X_INTRODUCED_243_;
var 1..167: X_INTRODUCED_244_;
var 1..167: X_INTRODUCED_245_;
var 1..167: X_INTRODUCED_246_;
var 1..167: X_INTRODUCED_247_;
var 1..167: X_INTRODUCED_248_;
var 1..167: X_INTRODUCED_249_;
var 1..167: X_INTRODUCED_250_;
var 1..167: X_INTRODUCED_251_;
var 1..167: X_INTRODUCED_252_;
var 1..167: X_INTRODUCED_253_;
var 1..167: X_INTRODUCED_254_;
var 1..167: X_INTRODUCED_255_;
var 1..167: X_INTRODUCED_256_;
var 1..167: X_INTRODUCED_257_;
var 1..167: X_INTRODUCED_258_;
var 1..167: X_INTRODUCED_259_;
var 1..167: X_INTRODUCED_260_;
var 1..167: X_INTRODUCED_261_;
var 1..167: X_INTRODUCED_262_;
var 1..167: X_INTRODUCED_263_;
var 1..167: X_INTRODUCED_264_;
var 1..167: X_INTRODUCED_265_;
var 1..167: X_INTRODUCED_266_;
var 1..167: X_INTRODUCED_267_;
var 1..167: X_INTRODUCED_268_;
var 1..167: X_INTRODUCED_269_;
var 1..167: X_INTRODUCED_270_;
var 1..167: X_INTRODUCED_271_;
var 1..167: X_INTRODUCED_272_;
var 1..167: X_INTRODUCED_273_;
var 1..167: X_INTRODUCED_274_;
var 1..167: X_INTRODUCED_275_;
var 1..167: X_INTRODUCED_276_;
var 1..167: X_INTRODUCED_277_;
var 1..167: X_INTRODUCED_278_;
var 1..167: X_INTRODUCED_279_;
var 1..167: X_INTRODUCED_280_;
var 1..167: X_INTRODUCED_281_;
var 1..167: X_INTRODUCED_282_;
var 1..167: X_INTRODUCED_283_;
var 1..167: X_INTRODUCED_284_;
var 1..167: X_INTRODUCED_285_;
var 1..167: X_INTRODUCED_286_;
var 1..167: X_INTRODUCED_287_;
var 1..167: X_INTRODUCED_288_;
var 1..167: X_INTRODUCED_289_;
var 1..167: X_INTRODUCED_290_;
var 1..167: X_INTRODUCED_291_;
var 1..167: X_INTRODUCED_292_;
var 1..167: X_INTRODUCED_293_;
var 1..167: X_INTRODUCED_294_;
var 1..167: X_INTRODUCED_295_;
var 1..167: X_INTRODUCED_296_;
var 1..167: X_INTRODUCED_297_;
var 1..167: X_INTRODUCED_298_;
var 1..167: X_INTRODUCED_299_;
var 1..167: X_INTRODUCED_300_;
var 1..167: X_INTRODUCED_301_;
var 1..167: X_INTRODUCED_302_;
var 1..167: X_INTRODUCED_303_;
var 1..167: X_INTRODUCED_304_;
var 1..167: X_INTRODUCED_305_;
var 1..167: X_INTRODUCED_306_;
var 1..167: X_INTRODUCED_307_;
var 1..167: X_INTRODUCED_308_;
var 1..167: X_INTRODUCED_309_;
var 1..167: X_INTRODUCED_310_;
var 1..167: X_INTRODUCED_311_;
var 1..167: X_INTRODUCED_312_;
var 1..167: X_INTRODUCED_313_;
var 1..167: X_INTRODUCED_314_;
var 1..167: X_INTRODUCED_315_;
var 1..167: X_INTRODUCED_316_;
var 1..167: X_INTRODUCED_317_;
var 1..167: X_INTRODUCED_318_;
var 1..167: X_INTRODUCED_319_;
var 1..167: X_INTRODUCED_320_;
var 1..167: X_INTRODUCED_321_;
var 1..167: X_INTRODUCED_322_;
var 1..167: X_INTRODUCED_323_;
var 1..167: X_INTRODUCED_324_;
var 1..167: X_INTRODUCED_325_;
var 1..167: X_INTRODUCED_326_;
var 1..167: X_INTRODUCED_327_;
var 1..167: X_INTRODUCED_328_;
var 1..167: X_INTRODUCED_329_;
var 1..167: X_INTRODUCED_330_;
var 1..167: X_INTRODUCED_331_;
var 1..167: X_INTRODUCED_332_;
var 1..167: X_INTRODUCED_333_;
var 1..167: X_INTRODUCED_334_;
var 1..167: X_INTRODUCED_335_;
var 1..167: X_INTRODUCED_336_;
var 1..167: X_INTRODUCED_337_;
var 1..167: X_INTRODUCED_338_;
var 1..167: X_INTRODUCED_339_;
var 1..167: X_INTRODUCED_340_;
var 1..167: X_INTRODUCED_341_;
var 1..167: X_INTRODUCED_342_;
var 1..167: X_INTRODUCED_343_;
var 1..167: X_INTRODUCED_344_;
var 1..167: X_INTRODUCED_345_;
var 1..167: X_INTRODUCED_346_;
var 1..167: X_INTRODUCED_347_;
var 1..167: X_INTRODUCED_348_;
var 1..167: X_INTRODUCED_349_;
var 1..167: X_INTRODUCED_350_;
var 1..167: X_INTRODUCED_351_;
var 1..167: X_INTRODUCED_352_;
var 1..167: X_INTRODUCED_353_;
var 1..167: X_INTRODUCED_354_;
var 1..167: X_INTRODUCED_355_;
var 1..167: X_INTRODUCED_356_;
var 1..167: X_INTRODUCED_357_;
var 1..167: X_INTRODUCED_358_;
var 1..167: X_INTRODUCED_359_;
var 1..167: X_INTRODUCED_360_;
var 1..167: X_INTRODUCED_361_;
var 1..167: X_INTRODUCED_362_;
var 1..167: X_INTRODUCED_363_;
var 1..167: X_INTRODUCED_364_;
var 1..167: X_INTRODUCED_365_;
var 1..167: X_INTRODUCED_366_;
var 1..167: X_INTRODUCED_367_;
var 1..167: X_INTRODUCED_368_;
var 1..167: X_INTRODUCED_369_;
var 1..167: X_INTRODUCED_370_;
var 1..167: X_INTRODUCED_371_;
var 1..167: X_INTRODUCED_372_;
var 1..167: X_INTRODUCED_373_;
var 1..167: X_INTRODUCED_374_;
var 1..167: X_INTRODUCED_375_;
var 1..167: X_INTRODUCED_376_;
var 1..167: X_INTRODUCED_377_;
var 1..167: X_INTRODUCED_378_;
var 1..167: X_INTRODUCED_379_;
var 1..167: X_INTRODUCED_380_;
var 1..167: X_INTRODUCED_381_;
var 1..167: X_INTRODUCED_382_;
var 1..167: X_INTRODUCED_383_;
var 1..167: X_INTRODUCED_384_;
var 1..167: X_INTRODUCED_385_;
var 1..167: X_INTRODUCED_386_;
var 1..167: X_INTRODUCED_387_;
var 1..167: X_INTRODUCED_388_;
var 1..167: X_INTRODUCED_389_;
var 1..167: X_INTRODUCED_390_;
var 1..167: X_INTRODUCED_391_;
var 1..167: X_INTRODUCED_392_;
var 1..167: X_INTRODUCED_393_;
var 1..167: X_INTRODUCED_394_;
var 1..167: X_INTRODUCED_395_;
var 1..167: X_INTRODUCED_396_;
var 1..167: X_INTRODUCED_397_;
var 1..167: X_INTRODUCED_398_;
var 1..167: X_INTRODUCED_399_;
var 1..167: X_INTRODUCED_400_;
var 1..167: X_INTRODUCED_401_;
var 1..167: X_INTRODUCED_402_;
var 1..167: X_INTRODUCED_403_;
var 1..167: X_INTRODUCED_404_;
var 1..167: X_INTRODUCED_405_;
var 1..167: X_INTRODUCED_406_;
var 1..167: X_INTRODUCED_407_;
var 1..167: X_INTRODUCED_408_;
var 1..167: X_INTRODUCED_409_;
var 1..167: X_INTRODUCED_410_;
var 1..167: X_INTRODUCED_411_;
var 1..167: X_INTRODUCED_412_;
var 1..167: X_INTRODUCED_413_;
var 1..167: X_INTRODUCED_414_;
var 1..167: X_INTRODUCED_415_;
var 1..167: X_INTRODUCED_416_;
var 1..167: X_INTRODUCED_417_;
var 1..167: X_INTRODUCED_418_;
var 1..167: X_INTRODUCED_419_;
var 1..167: X_INTRODUCED_420_;
var 1..167: X_INTRODUCED_421_;
var 1..167: X_INTRODUCED_422_;
var 1..167: X_INTRODUCED_423_;
var 1..167: X_INTRODUCED_424_;
var 1..167: X_INTRODUCED_425_;
var 1..167: X_INTRODUCED_426_;
var 1..167: X_INTRODUCED_427_;
var 1..167: X_INTRODUCED_428_;
var 1..167: X_INTRODUCED_429_;
var 1..167: X_INTRODUCED_430_;
var 1..167: X_INTRODUCED_431_;
var 1..167: X_INTRODUCED_432_;
var 1..167: X_INTRODUCED_433_;
var 1..167: X_INTRODUCED_434_;
var 1..167: X_INTRODUCED_435_;
var 1..167: X_INTRODUCED_436_;
var 1..167: X_INTRODUCED_437_;
var 1..167: X_INTRODUCED_438_;
var 1..167: X_INTRODUCED_439_;
var 1..167: X_INTRODUCED_440_;
var 1..167: X_INTRODUCED_441_;
var 1..167: X_INTRODUCED_442_;
var 1..167: X_INTRODUCED_443_;
var 1..167: X_INTRODUCED_444_;
var 1..167: X_INTRODUCED_445_;
var 1..167: X_INTRODUCED_446_;
var 1..167: X_INTRODUCED_447_;
var 1..167: X_INTRODUCED_448_;
var 1..167: X_INTRODUCED_449_;
var 1..167: X_INTRODUCED_450_;
var 1..167: X_INTRODUCED_451_;
var 1..167: X_INTRODUCED_452_;
var 1..167: X_INTRODUCED_453_;
var 1..167: X_INTRODUCED_454_;
var 1..167: X_INTRODUCED_455_;
var 1..167: X_INTRODUCED_456_;
var 1..167: X_INTRODUCED_457_;
var 1..167: X_INTRODUCED_458_;
var 1..167: X_INTRODUCED_459_;
var 1..167: X_INTRODUCED_460_;
var 1..167: X_INTRODUCED_461_;
var 1..167: X_INTRODUCED_462_;
var 1..167: X_INTRODUCED_463_;
var 1..167: X_INTRODUCED_464_;
var 1..167: X_INTRODUCED_465_;
var 1..167: X_INTRODUCED_466_;
var 1..167: X_INTRODUCED_467_;
var 1..167: X_INTRODUCED_468_;
var 1..167: X_INTRODUCED_469_;
var 1..167: X_INTRODUCED_470_;
var 1..167: X_INTRODUCED_471_;
var 1..167: X_INTRODUCED_472_;
var 1..167: X_INTRODUCED_473_;
var 1..167: X_INTRODUCED_474_;
var 1..167: X_INTRODUCED_475_;
var 1..167: X_INTRODUCED_476_;
var 1..167: X_INTRODUCED_477_;
var 1..167: X_INTRODUCED_478_;
var 1..167: X_INTRODUCED_479_;
var 1..167: X_INTRODUCED_480_;
var 1..167: X_INTRODUCED_481_;
var 1..167: X_INTRODUCED_482_;
var 1..167: X_INTRODUCED_483_;
var 1..167: X_INTRODUCED_484_;
var 1..167: X_INTRODUCED_485_;
var 1..167: X_INTRODUCED_486_;
var 1..167: X_INTRODUCED_487_;
var 1..167: X_INTRODUCED_488_;
var 1..167: X_INTRODUCED_489_;
var 1..167: X_INTRODUCED_490_;
var 1..167: X_INTRODUCED_491_;
var 1..167: X_INTRODUCED_492_;
var 1..167: X_INTRODUCED_493_;
var 1..167: X_INTRODUCED_494_;
var 1..167: X_INTRODUCED_495_;
var 1..167: X_INTRODUCED_496_;
var 1..167: X_INTRODUCED_497_;
var 1..167: X_INTRODUCED_498_;
var 1..167: X_INTRODUCED_499_;
var 1..167: X_INTRODUCED_500_;
var 1..167: X_INTRODUCED_501_;
var 1..167: X_INTRODUCED_502_;
var 1..167: X_INTRODUCED_503_;
var 1..167: X_INTRODUCED_504_;
var 1..167: X_INTRODUCED_505_;
var 1..167: X_INTRODUCED_506_;
var 1..167: X_INTRODUCED_507_;
var 1..167: X_INTRODUCED_508_;
var 1..167: X_INTRODUCED_509_;
var 1..167: X_INTRODUCED_510_;
var 1..167: X_INTRODUCED_511_;
var 1..167: X_INTRODUCED_512_;
var 1..167: X_INTRODUCED_513_;
var 1..167: X_INTRODUCED_514_;
var 1..167: X_INTRODUCED_515_;
var 1..167: X_INTRODUCED_516_;
var 0..1000: X_INTRODUCED_519_ ::var_is_introduced ;
var 0..1000: X_INTRODUCED_520_ ::var_is_introduced ;
var 0..1000: X_INTRODUCED_521_ ::var_is_introduced ;
var 0..1000: X_INTRODUCED_522_ ::var_is_introduced ;
var 0..1000: X_INTRODUCED_523_ ::var_is_introduced ;
var 0..1000: X_INTRODUCED_524_ ::var_is_introduced ;
var 0..1000: X_INTRODUCED_525_ ::var_is_introduced ;
var 0..1000: X_INTRODUCED_526_ ::var_is_introduced ;
var 0..1000: X_INTRODUCED_527_ ::var_is_introduced ;
var 0..1000: X_INTRODUCED_528_ ::var_is_introduced ;
var 0..1000: X_INTRODUCED_529_ ::var_is_introduced ;
var 0..1000: X_INTRODUCED_530_ ::var_is_introduced ;
var 0..1000: X_INTRODUCED_531_ ::var_is_introduced ;
var 0..1000: X_INTRODUCED_532_ ::var_is_introduced ;
var 0..1000: X_INTRODUCED_533_ ::var_is_introduced ;
var 0..1000: X_INTRODUCED_534_ ::var_is_introduced ;
var 0..1000: X_INTRODUCED_535_ ::var_is_introduced ;
var 0..1000: X_INTRODUCED_536_ ::var_is_introduced ;
var 0..1000: X_INTRODUCED_537_ ::var_is_introduced ;
var 0..1000: X_INTRODUCED_538_ ::var_is_introduced ;
var 0..1000: X_INTRODUCED_539_ ::var_is_introduced ;
var 0..1000: X_INTRODUCED_540_ ::var_is_introduced ;
var 0..1000: X_INTRODUCED_541_ ::var_is_introduced ;
var 0..1000: X_INTRODUCED_542_ ::var_is_introduced ;
var 0..1000: X_INTRODUCED_543_ ::var_is_introduced ;
var 0..1000: X_INTRODUCED_544_ ::var_is_introduced ;
var 0..1000: X_INTRODUCED_545_ ::var_is_introduced ;
var 0..1000: X_INTRODUCED_546_ ::var_is_introduced ;
var 0..1000: X_INTRODUCED_547_ ::var_is_introduced ;
var 0..1000: X_INTRODUCED_548_ ::var_is_introduced ;
var 0..1000: X_INTRODUCED_549_ ::var_is_introduced ;
var 0..1000: X_INTRODUCED_550_ ::var_is_introduced ;
var 0..1000: X_INTRODUCED_551_ ::var_is_introduced ;
var 0..1000: X_INTRODUCED_552_ ::var_is_introduced ;
var 0..1000: X_INTRODUCED_553_ ::var_is_introduced ;
var 0..1000: X_INTRODUCED_554_ ::var_is_introduced ;
var 0..1000: X_INTRODUCED_555_ ::var_is_introduced ;
var 0..1000: X_INTRODUCED_556_ ::var_is_introduced ;
var 0..1000: X_INTRODUCED_557_ ::var_is_introduced ;
var 0..1000: X_INTRODUCED_558_ ::var_is_introduced ;
var 0..1000: X_INTRODUCED_559_ ::var_is_introduced ;
var 0..1000: X_INTRODUCED_560_ ::var_is_introduced ;
var 0..1000: X_INTRODUCED_561_ ::var_is_introduced ;
var 0..1000: X_INTRODUCED_562_ ::var_is_introduced ;
var 0..1000: X_INTRODUCED_563_ ::var_is_introduced ;
var 0..1000: X_INTRODUCED_564_ ::var_is_introduced ;
var 0..1000: X_INTRODUCED_565_ ::var_is_introduced ;
var 0..1000: X_INTRODUCED_566_ ::var_is_introduced ;
var 0..1000: X_INTRODUCED_567_ ::var_is_introduced ;
var 0..1000: X_INTRODUCED_568_ ::var_is_introduced ;
var 0..1000: X_INTRODUCED_569_ ::var_is_introduced ;
var 0..1000: X_INTRODUCED_570_ ::var_is_introduced ;
var 0..1000: X_INTRODUCED_571_ ::var_is_introduced ;
var 0..1000: X_INTRODUCED_572_ ::var_is_introduced ;
var 0..1000: X_INTRODUCED_573_ ::var_is_introduced ;
var 0..1000: X_INTRODUCED_574_ ::var_is_introduced ;
var 0..1000: X_INTRODUCED_575_ ::var_is_introduced ;
var 0..1000: X_INTRODUCED_576_ ::var_is_introduced ;
var 0..1000: X_INTRODUCED_577_ ::var_is_introduced ;
var 0..1000: X_INTRODUCED_578_ ::var_is_introduced ;
var 0..1000: X_INTRODUCED_579_ ::var_is_introduced ;
var 0..1000: X_INTRODUCED_580_ ::var_is_introduced ;
var 0..1000: X_INTRODUCED_581_ ::var_is_introduced ;
var 0..1000: X_INTRODUCED_582_ ::var_is_introduced ;
var 0..1000: X_INTRODUCED_583_ ::var_is_introduced ;
var 0..1000: X_INTRODUCED_584_ ::var_is_introduced ;
var 0..1000: X_INTRODUCED_585_ ::var_is_introduced ;
var 0..1000: X_INTRODUCED_586_ ::var_is_introduced ;
var 0..1000: X_INTRODUCED_587_ ::var_is_introduced ;
var 0..1000: X_INTRODUCED_588_ ::var_is_introduced ;
var 0..1000: X_INTRODUCED_589_ ::var_is_introduced ;
var 0..1000: X_INTRODUCED_590_ ::var_is_introduced ;
var 0..1000: X_INTRODUCED_591_ ::var_is_introduced ;
var 0..1000: X_INTRODUCED_592_ ::var_is_introduced ;
var 0..1000: X_INTRODUCED_593_ ::var_is_introduced ;
var 0..1000: X_INTRODUCED_594_ ::var_is_introduced ;
var 0..1000: X_INTRODUCED_595_ ::var_is_introduced ;
var 0..1000: X_INTRODUCED_596_ ::var_is_introduced ;
var 0..1000: X_INTRODUCED_597_ ::var_is_introduced ;
var 0..1000: X_INTRODUCED_598_ ::var_is_introduced ;
var 0..1000: X_INTRODUCED_599_ ::var_is_introduced ;
var 0..1000: X_INTRODUCED_600_ ::var_is_introduced ;
var 0..1000: X_INTRODUCED_601_ ::var_is_introduced ;
var 0..1000: X_INTRODUCED_602_ ::var_is_introduced ;
var 0..1000: X_INTRODUCED_603_ ::var_is_introduced ;
var 0..1000: X_INTRODUCED_604_ ::var_is_introduced ;
var 0..1000: X_INTRODUCED_605_ ::var_is_introduced ;
var 0..1000: X_INTRODUCED_606_ ::var_is_introduced ;
var 0..1000: X_INTRODUCED_607_ ::var_is_introduced ;
var 0..1000: X_INTRODUCED_608_ ::var_is_introduced ;
var 0..1000: X_INTRODUCED_609_ ::var_is_introduced ;
var 0..1000: X_INTRODUCED_610_ ::var_is_introduced ;
var 0..1000: X_INTRODUCED_611_ ::var_is_introduced ;
var 0..1000: X_INTRODUCED_612_ ::var_is_introduced ;
var 0..1000: X_INTRODUCED_613_ ::var_is_introduced ;
var 0..1000: X_INTRODUCED_614_ ::var_is_introduced ;
var 0..1000: X_INTRODUCED_615_ ::var_is_introduced ;
var 0..1000: X_INTRODUCED_616_ ::var_is_introduced ;
var 0..1000: X_INTRODUCED_617_ ::var_is_introduced ;
var 0..1000: X_INTRODUCED_618_ ::var_is_introduced ;
var 0..1000: X_INTRODUCED_619_ ::var_is_introduced ;
var 0..1000: X_INTRODUCED_620_ ::var_is_introduced ;
var 0..1000: X_INTRODUCED_621_ ::var_is_introduced ;
var 0..1000: X_INTRODUCED_622_ ::var_is_introduced ;
var 0..1000: X_INTRODUCED_623_ ::var_is_introduced ;
var 0..1000: X_INTRODUCED_624_ ::var_is_introduced ;
var 0..1000: X_INTRODUCED_625_ ::var_is_introduced ;
var 0..1000: X_INTRODUCED_626_ ::var_is_introduced ;
var 0..1000: X_INTRODUCED_627_ ::var_is_introduced ;
var 0..1000: X_INTRODUCED_628_ ::var_is_introduced ;
var 0..1000: X_INTRODUCED_629_ ::var_is_introduced ;
var 0..1000: X_INTRODUCED_630_ ::var_is_introduced ;
var 0..1000: X_INTRODUCED_631_ ::var_is_introduced ;
var 0..1000: X_INTRODUCED_632_ ::var_is_introduced ;
var 0..1000: X_INTRODUCED_633_ ::var_is_introduced ;
var 0..1000: X_INTRODUCED_634_ ::var_is_introduced ;
var 0..1000: X_INTRODUCED_635_ ::var_is_introduced ;
var 0..1000: X_INTRODUCED_636_ ::var_is_introduced ;
var 0..1000: X_INTRODUCED_637_ ::var_is_introduced ;
var 0..1000: X_INTRODUCED_638_ ::var_is_introduced ;
var 0..1000: X_INTRODUCED_639_ ::var_is_introduced ;
var 0..1000: X_INTRODUCED_640_ ::var_is_introduced ;
var 0..1000: X_INTRODUCED_641_ ::var_is_introduced ;
var 0..1000: X_INTRODUCED_642_ ::var_is_introduced ;
var 0..1000: X_INTRODUCED_643_ ::var_is_introduced ;
var 0..1000: X_INTRODUCED_644_ ::var_is_introduced ;
var 0..1000: X_INTRODUCED_645_ ::var_is_introduced ;
var 0..1000: X_INTRODUCED_646_ ::var_is_introduced ;
var 0..1000: X_INTRODUCED_647_ ::var_is_introduced ;
var 0..1000: X_INTRODUCED_648_ ::var_is_introduced ;
var 0..1000: X_INTRODUCED_649_ ::var_is_introduced ;
var 0..1000: X_INTRODUCED_650_ ::var_is_introduced ;
var 0..1000: X_INTRODUCED_651_ ::var_is_introduced ;
var 0..1000: X_INTRODUCED_652_ ::var_is_introduced ;
var 0..1000: X_INTRODUCED_653_ ::var_is_introduced ;
var 0..1000: X_INTRODUCED_654_ ::var_is_introduced ;
var 0..1000: X_INTRODUCED_655_ ::var_is_introduced ;
var 0..1000: X_INTRODUCED_656_ ::var_is_introduced ;
var 0..1000: X_INTRODUCED_657_ ::var_is_introduced ;
var 0..1000: X_INTRODUCED_658_ ::var_is_introduced ;
var 0..1000: X_INTRODUCED_659_ ::var_is_introduced ;
var 0..1000: X_INTRODUCED_660_ ::var_is_introduced ;
var 0..1000: X_INTRODUCED_661_ ::var_is_introduced ;
var 0..1000: X_INTRODUCED_662_ ::var_is_introduced ;
var 0..1000: X_INTRODUCED_663_ ::var_is_introduced ;
var 0..1000: X_INTRODUCED_664_ ::var_is_introduced ;
var 0..1000: X_INTRODUCED_665_ ::var_is_introduced ;
var 0..1000: X_INTRODUCED_666_ ::var_is_introduced ;
var 0..1000: X_INTRODUCED_667_ ::var_is_introduced ;
var 0..1000: X_INTRODUCED_668_ ::var_is_introduced ;
var 0..1000: X_INTRODUCED_669_ ::var_is_introduced ;
var 0..1000: X_INTRODUCED_670_ ::var_is_introduced ;
var 0..1000: X_INTRODUCED_671_ ::var_is_introduced ;
var 0..1000: X_INTRODUCED_672_ ::var_is_introduced ;
var 0..1000: X_INTRODUCED_673_ ::var_is_introduced ;
var 0..1000: X_INTRODUCED_674_ ::var_is_introduced ;
var 0..1000: X_INTRODUCED_675_ ::var_is_introduced ;
var 0..1000: X_INTRODUCED_676_ ::var_is_introduced ;
var 0..1000: X_INTRODUCED_677_ ::var_is_introduced ;
var 0..1000: X_INTRODUCED_678_ ::var_is_introduced ;
var 0..1000: X_INTRODUCED_679_ ::var_is_introduced ;
var 0..1000: X_INTRODUCED_680_ ::var_is_introduced ;
var 0..1000: X_INTRODUCED_681_ ::var_is_introduced ;
var 0..1000: X_INTRODUCED_682_ ::var_is_introduced ;
var 0..1000: X_INTRODUCED_683_ ::var_is_introduced ;
var 0..1000: X_INTRODUCED_684_ ::var_is_introduced ;
var 0..1000: X_INTRODUCED_685_ ::var_is_introduced ;
array [1..501] of var int: items_bin:: output_array([1..501]) = [X_INTRODUCED_16_,X_INTRODUCED_17_,X_INTRODUCED_18_,X_INTRODUCED_19_,X_INTRODUCED_20_,X_INTRODUCED_21_,X_INTRODUCED_22_,X_INTRODUCED_23_,X_INTRODUCED_24_,X_INTRODUCED_25_,X_INTRODUCED_26_,X_INTRODUCED_27_,X_INTRODUCED_28_,X_INTRODUCED_29_,X_INTRODUCED_30_,X_INTRODUCED_31_,X_INTRODUCED_32_,X_INTRODUCED_33_,X_INTRODUCED_34_,X_INTRODUCED_35_,X_INTRODUCED_36_,X_INTRODUCED_37_,X_INTRODUCED_38_,X_INTRODUCED_39_,X_INTRODUCED_40_,X_INTRODUCED_41_,X_INTRODUCED_42_,X_INTRODUCED_43_,X_INTRODUCED_44_,X_INTRODUCED_45_,X_INTRODUCED_46_,X_INTRODUCED_47_,X_INTRODUCED_48_,X_INTRODUCED_49_,X_INTRODUCED_50_,X_INTRODUCED_51_,X_INTRODUCED_52_,X_INTRODUCED_53_,X_INTRODUCED_54_,X_INTRODUCED_55_,X_INTRODUCED_56_,X_INTRODUCED_57_,X_INTRODUCED_58_,X_INTRODUCED_59_,X_INTRODUCED_60_,X_INTRODUCED_61_,X_INTRODUCED_62_,X_INTRODUCED_63_,X_INTRODUCED_64_,X_INTRODUCED_65_,X_INTRODUCED_66_,X_INTRODUCED_67_,X_INTRODUCED_68_,X_INTRODUCED_69_,X_INTRODUCED_70_,X_INTRODUCED_71_,X_INTRODUCED_72_,X_INTRODUCED_73_,X_INTRODUCED_74_,X_INTRODUCED_75_,X_INTRODUCED_76_,X_INTRODUCED_77_,X_INTRODUCED_78_,X_INTRODUCED_79_,X_INTRODUCED_80_,X_INTRODUCED_81_,X_INTRODUCED_82_,X_INTRODUCED_83_,X_INTRODUCED_84_,X_INTRODUCED_85_,X_INTRODUCED_86_,X_INTRODUCED_87_,X_INTRODUCED_88_,X_INTRODUCED_89_,X_INTRODUCED_90_,X_INTRODUCED_91_,X_INTRODUCED_92_,X_INTRODUCED_93_,X_INTRODUCED_94_,X_INTRODUCED_95_,X_INTRODUCED_96_,X_INTRODUCED_97_,X_INTRODUCED_98_,X_INTRODUCED_99_,X_INTRODUCED_100_,X_INTRODUCED_101_,X_INTRODUCED_102_,X_INTRODUCED_103_,X_INTRODUCED_104_,X_INTRODUCED_105_,X_INTRODUCED_106_,X_INTRODUCED_107_,X_INTRODUCED_108_,X_INTRODUCED_109_,X_INTRODUCED_110_,X_INTRODUCED_111_,X_INTRODUCED_112_,X_INTRODUCED_113_,X_INTRODUCED_114_,X_INTRODUCED_115_,X_INTRODUCED_116_,X_INTRODUCED_117_,X_INTRODUCED_118_,X_INTRODUCED_119_,X_INTRODUCED_120_,X_INTRODUCED_121_,X_INTRODUCED_122_,X_INTRODUCED_123_,X_INTRODUCED_124_,X_INTRODUCED_125_,X_INTRODUCED_126_,X_INTRODUCED_127_,X_INTRODUCED_128_,X_INTRODUCED_129_,X_INTRODUCED_130_,X_INTRODUCED_131_,X_INTRODUCED_132_,X_INTRODUCED_133_,X_INTRODUCED_134_,X_INTRODUCED_135_,X_INTRODUCED_136_,X_INTRODUCED_137_,X_INTRODUCED_138_,X_INTRODUCED_139_,X_INTRODUCED_140_,X_INTRODUCED_141_,X_INTRODUCED_142_,X_INTRODUCED_143_,X_INTRODUCED_144_,X_INTRODUCED_145_,X_INTRODUCED_146_,X_INTRODUCED_147_,X_INTRODUCED_148_,X_INTRODUCED_149_,X_INTRODUCED_150_,X_INTRODUCED_151_,X_INTRODUCED_152_,X_INTRODUCED_153_,X_INTRODUCED_154_,X_INTRODUCED_155_,X_INTRODUCED_156_,X_INTRODUCED_157_,X_INTRODUCED_158_,X_INTRODUCED_159_,X_INTRODUCED_160_,X_INTRODUCED_161_,X_INTRODUCED_162_,X_INTRODUCED_163_,X_INTRODUCED_164_,X_INTRODUCED_165_,X_INTRODUCED_166_,X_INTRODUCED_167_,X_INTRODUCED_168_,X_INTRODUCED_169_,X_INTRODUCED_170_,X_INTRODUCED_171_,X_INTRODUCED_172_,X_INTRODUCED_173_,X_INTRODUCED_174_,X_INTRODUCED_175_,X_INTRODUCED_176_,X_INTRODUCED_177_,X_INTRODUCED_178_,X_INTRODUCED_179_,X_INTRODUCED_180_,X_INTRODUCED_181_,X_INTRODUCED_182_,X_INTRODUCED_183_,X_INTRODUCED_184_,X_INTRODUCED_185_,X_INTRODUCED_186_,X_INTRODUCED_187_,X_INTRODUCED_188_,X_INTRODUCED_189_,X_INTRODUCED_190_,X_INTRODUCED_191_,X_INTRODUCED_192_,X_INTRODUCED_193_,X_INTRODUCED_194_,X_INTRODUCED_195_,X_INTRODUCED_196_,X_INTRODUCED_197_,X_INTRODUCED_198_,X_INTRODUCED_199_,X_INTRODUCED_200_,X_INTRODUCED_201_,X_INTRODUCED_202_,X_INTRODUCED_203_,X_INTRODUCED_204_,X_INTRODUCED_205_,X_INTRODUCED_206_,X_INTRODUCED_207_,X_INTRODUCED_208_,X_INTRODUCED_209_,X_INTRODUCED_210_,X_INTRODUCED_211_,X_INTRODUCED_212_,X_INTRODUCED_213_,X_INTRODUCED_214_,X_INTRODUCED_215_,X_INTRODUCED_216_,X_INTRODUCED_217_,X_INTRODUCED_218_,X_INTRODUCED_219_,X_INTRODUCED_220_,X_INTRODUCED_221_,X_INTRODUCED_222_,X_INTRODUCED_223_,X_INTRODUCED_224_,X_INTRODUCED_225_,X_INTRODUCED_226_,X_INTRODUCED_227_,X_INTRODUCED_228_,X_INTRODUCED_229_,X_INTRODUCED_230_,X_INTRODUCED_231_,X_INTRODUCED_232_,X_INTRODUCED_233_,X_INTRODUCED_234_,X_INTRODUCED_235_,X_INTRODUCED_236_,X_INTRODUCED_237_,X_INTRODUCED_238_,X_INTRODUCED_239_,X_INTRODUCED_240_,X_INTRODUCED_241_,X_INTRODUCED_242_,X_INTRODUCED_243_,X_INTRODUCED_244_,X_INTRODUCED_245_,X_INTRODUCED_246_,X_INTRODUCED_247_,X_INTRODUCED_248_,X_INTRODUCED_249_,X_INTRODUCED_250_,X_INTRODUCED_251_,X_INTRODUCED_252_,X_INTRODUCED_253_,X_INTRODUCED_254_,X_INTRODUCED_255_,X_INTRODUCED_256_,X_INTRODUCED_257_,X_INTRODUCED_258_,X_INTRODUCED_259_,X_INTRODUCED_260_,X_INTRODUCED_261_,X_INTRODUCED_262_,X_INTRODUCED_263_,X_INTRODUCED_264_,X_INTRODUCED_265_,X_INTRODUCED_266_,X_INTRODUCED_267_,X_INTRODUCED_268_,X_INTRODUCED_269_,X_INTRODUCED_270_,X_INTRODUCED_271_,X_INTRODUCED_272_,X_INTRODUCED_273_,X_INTRODUCED_274_,X_INTRODUCED_275_,X_INTRODUCED_276_,X_INTRODUCED_277_,X_INTRODUCED_278_,X_INTRODUCED_279_,X_INTRODUCED_280_,X_INTRODUCED_281_,X_INTRODUCED_282_,X_INTRODUCED_283_,X_INTRODUCED_284_,X_INTRODUCED_285_,X_INTRODUCED_286_,X_INTRODUCED_287_,X_INTRODUCED_288_,X_INTRODUCED_289_,X_INTRODUCED_290_,X_INTRODUCED_291_,X_INTRODUCED_292_,X_INTRODUCED_293_,X_INTRODUCED_294_,X_INTRODUCED_295_,X_INTRODUCED_296_,X_INTRODUCED_297_,X_INTRODUCED_298_,X_INTRODUCED_299_,X_INTRODUCED_300_,X_INTRODUCED_301_,X_INTRODUCED_302_,X_INTRODUCED_303_,X_INTRODUCED_304_,X_INTRODUCED_305_,X_INTRODUCED_306_,X_INTRODUCED_307_,X_INTRODUCED_308_,X_INTRODUCED_309_,X_INTRODUCED_310_,X_INTRODUCED_311_,X_INTRODUCED_312_,X_INTRODUCED_313_,X_INTRODUCED_314_,X_INTRODUCED_315_,X_INTRODUCED_316_,X_INTRODUCED_317_,X_INTRODUCED_318_,X_INTRODUCED_319_,X_INTRODUCED_320_,X_INTRODUCED_321_,X_INTRODUCED_322_,X_INTRODUCED_323_,X_INTRODUCED_324_,X_INTRODUCED_325_,X_INTRODUCED_326_,X_INTRODUCED_327_,X_INTRODUCED_328_,X_INTRODUCED_329_,X_INTRODUCED_330_,X_INTRODUCED_331_,X_INTRODUCED_332_,X_INTRODUCED_333_,X_INTRODUCED_334_,X_INTRODUCED_335_,X_INTRODUCED_336_,X_INTRODUCED_337_,X_INTRODUCED_338_,X_INTRODUCED_339_,X_INTRODUCED_340_,X_INTRODUCED_341_,X_INTRODUCED_342_,X_INTRODUCED_343_,X_INTRODUCED_344_,X_INTRODUCED_345_,X_INTRODUCED_346_,X_INTRODUCED_347_,X_INTRODUCED_348_,X_INTRODUCED_349_,X_INTRODUCED_350_,X_INTRODUCED_351_,X_INTRODUCED_352_,X_INTRODUCED_353_,X_INTRODUCED_354_,X_INTRODUCED_355_,X_INTRODUCED_356_,X_INTRODUCED_357_,X_INTRODUCED_358_,X_INTRODUCED_359_,X_INTRODUCED_360_,X_INTRODUCED_361_,X_INTRODUCED_362_,X_INTRODUCED_363_,X_INTRODUCED_364_,X_INTRODUCED_365_,X_INTRODUCED_366_,X_INTRODUCED_367_,X_INTRODUCED_368_,X_INTRODUCED_369_,X_INTRODUCED_370_,X_INTRODUCED_371_,X_INTRODUCED_372_,X_INTRODUCED_373_,X_INTRODUCED_374_,X_INTRODUCED_375_,X_INTRODUCED_376_,X_INTRODUCED_377_,X_INTRODUCED_378_,X_INTRODUCED_379_,X_INTRODUCED_380_,X_INTRODUCED_381_,X_INTRODUCED_382_,X_INTRODUCED_383_,X_INTRODUCED_384_,X_INTRODUCED_385_,X_INTRODUCED_386_,X_INTRODUCED_387_,X_INTRODUCED_388_,X_INTRODUCED_389_,X_INTRODUCED_390_,X_INTRODUCED_391_,X_INTRODUCED_392_,X_INTRODUCED_393_,X_INTRODUCED_394_,X_INTRODUCED_395_,X_INTRODUCED_396_,X_INTRODUCED_397_,X_INTRODUCED_398_,X_INTRODUCED_399_,X_INTRODUCED_400_,X_INTRODUCED_401_,X_INTRODUCED_402_,X_INTRODUCED_403_,X_INTRODUCED_404_,X_INTRODUCED_405_,X_INTRODUCED_406_,X_INTRODUCED_407_,X_INTRODUCED_408_,X_INTRODUCED_409_,X_INTRODUCED_410_,X_INTRODUCED_411_,X_INTRODUCED_412_,X_INTRODUCED_413_,X_INTRODUCED_414_,X_INTRODUCED_415_,X_INTRODUCED_416_,X_INTRODUCED_417_,X_INTRODUCED_418_,X_INTRODUCED_419_,X_INTRODUCED_420_,X_INTRODUCED_421_,X_INTRODUCED_422_,X_INTRODUCED_423_,X_INTRODUCED_424_,X_INTRODUCED_425_,X_INTRODUCED_426_,X_INTRODUCED_427_,X_INTRODUCED_428_,X_INTRODUCED_429_,X_INTRODUCED_430_,X_INTRODUCED_431_,X_INTRODUCED_432_,X_INTRODUCED_433_,X_INTRODUCED_434_,X_INTRODUCED_435_,X_INTRODUCED_436_,X_INTRODUCED_437_,X_INTRODUCED_438_,X_INTRODUCED_439_,X_INTRODUCED_440_,X_INTRODUCED_441_,X_INTRODUCED_442_,X_INTRODUCED_443_,X_INTRODUCED_444_,X_INTRODUCED_445_,X_INTRODUCED_446_,X_INTRODUCED_447_,X_INTRODUCED_448_,X_INTRODUCED_449_,X_INTRODUCED_450_,X_INTRODUCED_451_,X_INTRODUCED_452_,X_INTRODUCED_453_,X_INTRODUCED_454_,X_INTRODUCED_455_,X_INTRODUCED_456_,X_INTRODUCED_457_,X_INTRODUCED_458_,X_INTRODUCED_459_,X_INTRODUCED_460_,X_INTRODUCED_461_,X_INTRODUCED_462_,X_INTRODUCED_463_,X_INTRODUCED_464_,X_INTRODUCED_465_,X_INTRODUCED_466_,X_INTRODUCED_467_,X_INTRODUCED_468_,X_INTRODUCED_469_,X_INTRODUCED_470_,X_INTRODUCED_471_,X_INTRODUCED_472_,X_INTRODUCED_473_,X_INTRODUCED_474_,X_INTRODUCED_475_,X_INTRODUCED_476_,X_INTRODUCED_477_,X_INTRODUCED_478_,X_INTRODUCED_479_,X_INTRODUCED_480_,X_INTRODUCED_481_,X_INTRODUCED_482_,X_INTRODUCED_483_,X_INTRODUCED_484_,X_INTRODUCED_485_,X_INTRODUCED_486_,X_INTRODUCED_487_,X_INTRODUCED_488_,X_INTRODUCED_489_,X_INTRODUCED_490_,X_INTRODUCED_491_,X_INTRODUCED_492_,X_INTRODUCED_493_,X_INTRODUCED_494_,X_INTRODUCED_495_,X_INTRODUCED_496_,X_INTRODUCED_497_,X_INTRODUCED_498_,X_INTRODUCED_499_,X_INTRODUCED_500_,X_INTRODUCED_501_,X_INTRODUCED_502_,X_INTRODUCED_503_,X_INTRODUCED_504_,X_INTRODUCED_505_,X_INTRODUCED_506_,X_INTRODUCED_507_,X_INTRODUCED_508_,X_INTRODUCED_509_,X_INTRODUCED_510_,X_INTRODUCED_511_,X_INTRODUCED_512_,X_INTRODUCED_513_,X_INTRODUCED_514_,X_INTRODUCED_515_,X_INTRODUCED_516_];
array [1..167] of var int: X_INTRODUCED_518_ ::var_is_introduced  = [X_INTRODUCED_519_,X_INTRODUCED_520_,X_INTRODUCED_521_,X_INTRODUCED_522_,X_INTRODUCED_523_,X_INTRODUCED_524_,X_INTRODUCED_525_,X_INTRODUCED_526_,X_INTRODUCED_527_,X_INTRODUCED_528_,X_INTRODUCED_529_,X_INTRODUCED_530_,X_INTRODUCED_531_,X_INTRODUCED_532_,X_INTRODUCED_533_,X_INTRODUCED_534_,X_INTRODUCED_535_,X_INTRODUCED_536_,X_INTRODUCED_537_,X_INTRODUCED_538_,X_INTRODUCED_539_,X_INTRODUCED_540_,X_INTRODUCED_541_,X_INTRODUCED_542_,X_INTRODUCED_543_,X_INTRODUCED_544_,X_INTRODUCED_545_,X_INTRODUCED_546_,X_INTRODUCED_547_,X_INTRODUCED_548_,X_INTRODUCED_549_,X_INTRODUCED_550_,X_INTRODUCED_551_,X_INTRODUCED_552_,X_INTRODUCED_553_,X_INTRODUCED_554_,X_INTRODUCED_555_,X_INTRODUCED_556_,X_INTRODUCED_557_,X_INTRODUCED_558_,X_INTRODUCED_559_,X_INTRODUCED_560_,X_INTRODUCED_561_,X_INTRODUCED_562_,X_INTRODUCED_563_,X_INTRODUCED_564_,X_INTRODUCED_565_,X_INTRODUCED_566_,X_INTRODUCED_567_,X_INTRODUCED_568_,X_INTRODUCED_569_,X_INTRODUCED_570_,X_INTRODUCED_571_,X_INTRODUCED_572_,X_INTRODUCED_573_,X_INTRODUCED_574_,X_INTRODUCED_575_,X_INTRODUCED_576_,X_INTRODUCED_577_,X_INTRODUCED_578_,X_INTRODUCED_579_,X_INTRODUCED_580_,X_INTRODUCED_581_,X_INTRODUCED_582_,X_INTRODUCED_583_,X_INTRODUCED_584_,X_INTRODUCED_585_,X_INTRODUCED_586_,X_INTRODUCED_587_,X_INTRODUCED_588_,X_INTRODUCED_589_,X_INTRODUCED_590_,X_INTRODUCED_591_,X_INTRODUCED_592_,X_INTRODUCED_593_,X_INTRODUCED_594_,X_INTRODUCED_595_,X_INTRODUCED_596_,X_INTRODUCED_597_,X_INTRODUCED_598_,X_INTRODUCED_599_,X_INTRODUCED_600_,X_INTRODUCED_601_,X_INTRODUCED_602_,X_INTRODUCED_603_,X_INTRODUCED_604_,X_INTRODUCED_605_,X_INTRODUCED_606_,X_INTRODUCED_607_,X_INTRODUCED_608_,X_INTRODUCED_609_,X_INTRODUCED_610_,X_INTRODUCED_611_,X_INTRODUCED_612_,X_INTRODUCED_613_,X_INTRODUCED_614_,X_INTRODUCED_615_,X_INTRODUCED_616_,X_INTRODUCED_617_,X_INTRODUCED_618_,X_INTRODUCED_619_,X_INTRODUCED_620_,X_INTRODUCED_621_,X_INTRODUCED_622_,X_INTRODUCED_623_,X_INTRODUCED_624_,X_INTRODUCED_625_,X_INTRODUCED_626_,X_INTRODUCED_627_,X_INTRODUCED_628_,X_INTRODUCED_629_,X_INTRODUCED_630_,X_INTRODUCED_631_,X_INTRODUCED_632_,X_INTRODUCED_633_,X_INTRODUCED_634_,X_INTRODUCED_635_,X_INTRODUCED_636_,X_INTRODUCED_637_,X_INTRODUCED_638_,X_INTRODUCED_639_,X_INTRODUCED_640_,X_INTRODUCED_641_,X_INTRODUCED_642_,X_INTRODUCED_643_,X_INTRODUCED_644_,X_INTRODUCED_645_,X_INTRODUCED_646_,X_INTRODUCED_647_,X_INTRODUCED_648_,X_INTRODUCED_649_,X_INTRODUCED_650_,X_INTRODUCED_651_,X_INTRODUCED_652_,X_INTRODUCED_653_,X_INTRODUCED_654_,X_INTRODUCED_655_,X_INTRODUCED_656_,X_INTRODUCED_657_,X_INTRODUCED_658_,X_INTRODUCED_659_,X_INTRODUCED_660_,X_INTRODUCED_661_,X_INTRODUCED_662_,X_INTRODUCED_663_,X_INTRODUCED_664_,X_INTRODUCED_665_,X_INTRODUCED_666_,X_INTRODUCED_667_,X_INTRODUCED_668_,X_INTRODUCED_669_,X_INTRODUCED_670_,X_INTRODUCED_671_,X_INTRODUCED_672_,X_INTRODUCED_673_,X_INTRODUCED_674_,X_INTRODUCED_675_,X_INTRODUCED_676_,X_INTRODUCED_677_,X_INTRODUCED_678_,X_INTRODUCED_679_,X_INTRODUCED_680_,X_INTRODUCED_681_,X_INTRODUCED_682_,X_INTRODUCED_683_,X_INTRODUCED_684_,X_INTRODUCED_685_];
constraint minicpp_bin_packing_load(X_INTRODUCED_518_,items_bin,weights);
solve :: int_search(items_bin,input_order,indomain_min,complete) satisfy;
